nNurses = 54;
nHours = 34;
minHours = 10;
maxHours = 10;
maxConsec = 9;
maxPresence = 18;
demand = [13, 15, 15, 16, 13, 9, 11, 6, 5, 10, 6, 9, 5, 8, 11, 15, 10, 5, 6, 7, 11, 10, 13, 15, 16, 14, 13, 15, 14, 11, 15, 10, 8, 13];
